NAME: data/berlin52.tsp/berlin52.tsp.tour
TYPE: TOUR
DIMENSION: 52
SOLUTION: 6078
TOUR_SECTION
0, 21
21, 48
48, 31
31, 35
35, 34
34, 33
33, 38
38, 39
39, 37
37, 36
36, 23
23, 47
47, 4
4, 14
14, 5
5, 3
3, 43
43, 30
30, 17
17, 24
24, 45
45, 15
15, 49
49, 19
19, 22
22, 2
2, 20
20, 44
44, 18
18, 40
40, 7
7, 29
29, 9
9, 8
8, 28
28, 16
16, 42
42, 11
11, 27
27, 26
26, 25
25, 12
12, 46
46, 50
50, 13
13, 51
51, 10
10, 41
41, 6
6, 1
1, 32
EOF